NAME : local_16
TYPE : ATSP
DIMENSION : 9
EDGE_WEIGHT_TYPE : EXPLICIT
EDGE_WEIGHT_FORMAT : FULL_MATRIX
EDGE_WEIGHT_SECTION
0 277 504 10000000 10000000 10000000 637 621 310 
0 0 255 10000000 10000000 10000000 379 857 555 
0 255 0 10000000 10000000 10000000 289 995 726 
0 10000000 10000000 0 593 364 10000000 10000000 10000000 
0 10000000 10000000 593 0 444 10000000 10000000 10000000 
0 10000000 10000000 364 444 0 10000000 10000000 10000000 
0 379 289 10000000 10000000 10000000 0 10000000 913 
0 857 995 10000000 10000000 10000000 10000000 0 314 
0 10000000 10000000 10000000 10000000 10000000 10000000 10000000 0 
EOF